NOMBRE : TEST RESCOL
COMENTARIO : Ejemplo de formato
VERTICES : 46
ARISTAS_REQ : 33
ARISTAS_NOREQ : 45
RESTRICCIONES : 3
NODOS_INICIALES : 46
NODOS_TERMINO : 10
LISTA_ARISTAS_REQ :
uni 0 1 8 9
uni 1 21 3 1
uni 22 3 4 3
uni 21 61 9 9
uni 62 22 1 2
bi 63 55 9 1
bi 56 65 23 4
bi 71 64 12 8
bi 66 72 9 4 
uni 67 101 23 5
uni 102 68 21 5
bi 103 95 34 8
bi 96 105 12 3
bi 111 104 23 4
bi 106 112 12 1
uni 141 13 3 4
uni 15 142 4 2
uni 107 141 4 3
uni 142 108 5 8
uni 41 0 8 9
uni 81 42 9 4
bi 51 41 4 8
bi 42 52 1 3
uni 12 82 8 9
bi 91 81 4 3
bi 82 92 1 8
uni 1 53 9 3
uni 54 93 8 1
uni 94 13 19 2
uni 3 71 21 4
uni 72 111 9 4
uni 112 15 5 2
uni 13 12 7 9
LISTA_ARISTAS_NOREQ :
42 41
82 81
53 51
53 54
53 56
55 51
55 54
21 22
61 63
61 67
61 66
64 62
64 67
64 63
65 62
65 67
65 66
68 66
68 63
68 62
101 103
101 107
101 106
104 102
104 107
104 103
105 102
105 107
105 106
108 106
108 103
108 102
142 141
142 141
52 56
52 54
93 91
93 94
93 96
95 91
95 94
92 96
92 94
71 72
111 112
COORDENADAS_NODOS :  
0 0 
4.5 0 
10 0 
12 0 
17 0 
0 -4.5 
0 -6 
3 -4.5 
3 -6 
4.5 -3 
4.5 -7.5 
6 -4.5 
6 -6 
10 -3 
12 -3 
8 -4.5 
14 -4.5 
8 -6 
14 -6 
10 -7.5 
12 -7.5 
17 -4.5 
17 -6 
0 -11 
0 -12.5 
3 -11 
3 -12.5 
4.5 -9.5 
4.5 -14 
6 -11 
6 -12.5 
10 -9.5 
12 -9.5 
8 -11 
14 -11 
8 -12.5 
14 -12.5 
10 -14 
12 -14 
17 -11 
17 -12.5 
0 -17 
4.5 -17 
10 -17 
12 -17 
17 -17 
RESTRICCIONES :
1 3 5
4 5 3
1 3 2
NODOS_INICIALES:
0
1
3
12
141
13
15
142
21
22
41
42
51
52
53
54
55
56
61
62
63
64
65
66
67
68
71
72
81
82
91
92
93
94
95
96
101
102
103
104
105
106
107
108
111
112
NODOS_TERMINO:
3
12
141
13
15
142
21
22
41
42